GLPSOL--GLPK LP/MIP Solver 5.0
Parameter(s) specified in the command line:
 --cpxlp --first inputs/new_no_tr/order/triang6_3_tiers_input.lp -o solutions/new_no_tr/triang6_3_tiers_input.lp
Reading problem data from 'inputs/new_no_tr/order/triang6_3_tiers_input.lp'...
inputs/new_no_tr/order/triang6_3_tiers_input.lp:2303: warning: lower bound of variable 'm_0_0' redefined
inputs/new_no_tr/order/triang6_3_tiers_input.lp:2303: warning: upper bound of variable 'm_0_0' redefined
2172 rows, 904 columns, 6294 non-zeros
904 integer variables, 780 of which are binary
3185 lines were read
GLPK Integer Optimizer 5.0
2172 rows, 904 columns, 6294 non-zeros
904 integer variables, 780 of which are binary
Preprocessing...
30 hidden packing inequaliti(es) were detected
43 hidden covering inequaliti(es) were detected
360 constraint coefficient(s) were reduced
1872 rows, 721 columns, 5270 non-zeros
721 integer variables, 699 of which are binary
Scaling...
 A: min|aij| =  1.000e+00  max|aij| =  8.800e+01  ratio =  8.800e+01
GM: min|aij| =  4.671e-01  max|aij| =  2.141e+00  ratio =  4.583e+00
EQ: min|aij| =  2.182e-01  max|aij| =  1.000e+00  ratio =  4.583e+00
2N: min|aij| =  2.500e-01  max|aij| =  1.375e+00  ratio =  5.500e+00
Constructing initial basis...
Size of triangular part is 1692
Solving LP relaxation...
GLPK Simplex Optimizer 5.0
1872 rows, 721 columns, 5270 non-zeros
      0: obj =   2.120000000e+02 inf =   1.072e+02 (90)
    534: obj =   3.209926830e+02 inf =   1.388e-16 (0) 5
*   977: obj =   2.463520915e+02 inf =   7.353e-16 (0) 4
OPTIMAL LP SOLUTION FOUND
Integer optimization begins...
Long-step dual simplex will be used
+   977: mip =     not found yet >=              -inf        (1; 0)
+ 43441: mip =     not found yet >=   2.620000000e+02        (97; 70)
+ 45233: >>>>>   3.360000000e+02 >=   2.620000000e+02  22.0% (112; 73)
+ 87019: mip =   3.360000000e+02 >=   2.790000000e+02  17.0% (306; 165)
+128944: mip =   3.360000000e+02 >=   2.800000000e+02  16.7% (451; 261)
+169980: mip =   3.360000000e+02 >=   2.820000000e+02  16.1% (623; 384)
+214294: mip =   3.360000000e+02 >=   2.840000000e+02  15.5% (792; 556)
+258194: mip =   3.360000000e+02 >=   2.860000000e+02  14.9% (1009; 678)
+302937: mip =   3.360000000e+02 >=   2.940000000e+02  12.5% (1223; 837)
+347809: mip =   3.360000000e+02 >=   2.940000000e+02  12.5% (1477; 1024)
+393271: mip =   3.360000000e+02 >=   2.940000000e+02  12.5% (1721; 1142)
+438283: mip =   3.360000000e+02 >=   2.940000000e+02  12.5% (1945; 1299)
+483460: mip =   3.360000000e+02 >=   2.950000000e+02  12.2% (2144; 1533)
Time used: 60.0 secs.  Memory used: 17.3 Mb.
+528982: mip =   3.360000000e+02 >=   2.960000000e+02  11.9% (2304; 1737)
+574475: mip =   3.360000000e+02 >=   2.960000000e+02  11.9% (2540; 1935)
+620760: mip =   3.360000000e+02 >=   2.970000000e+02  11.6% (2838; 2077)
+666929: mip =   3.360000000e+02 >=   2.970000000e+02  11.6% (3079; 2211)
+712497: mip =   3.360000000e+02 >=   2.980000000e+02  11.3% (3326; 2348)
+758673: mip =   3.360000000e+02 >=   2.980000000e+02  11.3% (3640; 2459)
+804663: mip =   3.360000000e+02 >=   2.980000000e+02  11.3% (3941; 2553)
+850627: mip =   3.360000000e+02 >=   2.990000000e+02  11.0% (4147; 2738)
+897613: mip =   3.360000000e+02 >=   2.990000000e+02  11.0% (4530; 2883)
+944111: mip =   3.360000000e+02 >=   2.990000000e+02  11.0% (4890; 2986)
+989690: mip =   3.360000000e+02 >=   2.990000000e+02  11.0% (5164; 3148)
+1036480: mip =   3.360000000e+02 >=   3.000000000e+02  10.7% (5442; 3382)
Time used: 120.0 secs.  Memory used: 36.8 Mb.
+1082189: mip =   3.360000000e+02 >=   3.000000000e+02  10.7% (5692; 3548)
+1128143: mip =   3.360000000e+02 >=   3.000000000e+02  10.7% (5915; 3718)
+1175586: mip =   3.360000000e+02 >=   3.010000000e+02  10.4% (6227; 3976)
+1223945: mip =   3.360000000e+02 >=   3.010000000e+02  10.4% (6742; 4097)
+1271545: mip =   3.360000000e+02 >=   3.010000000e+02  10.4% (7191; 4215)
+1318556: mip =   3.360000000e+02 >=   3.010000000e+02  10.4% (7539; 4368)
+1363096: mip =   3.360000000e+02 >=   3.010000000e+02  10.4% (7760; 4591)
+1408357: mip =   3.360000000e+02 >=   3.010000000e+02  10.4% (8052; 4764)
+1454388: mip =   3.360000000e+02 >=   3.020000000e+02  10.1% (8286; 4968)
+1503303: mip =   3.360000000e+02 >=   3.020000000e+02  10.1% (8700; 5144)
+1550007: mip =   3.360000000e+02 >=   3.020000000e+02  10.1% (9022; 5327)
+1594073: mip =   3.360000000e+02 >=   3.020000000e+02  10.1% (9210; 5556)
Time used: 180.0 secs.  Memory used: 59.4 Mb.
+1637703: mip =   3.360000000e+02 >=   3.020000000e+02  10.1% (9355; 5843)
+1684504: mip =   3.360000000e+02 >=   3.030000000e+02   9.8% (9719; 6056)
+1732001: mip =   3.360000000e+02 >=   3.030000000e+02   9.8% (10064; 6284)
+1778249: mip =   3.360000000e+02 >=   3.030000000e+02   9.8% (10342; 6488)
+1823907: mip =   3.360000000e+02 >=   3.030000000e+02   9.8% (10519; 6684)
+1869835: mip =   3.360000000e+02 >=   3.030000000e+02   9.8% (10694; 6837)
+1915537: mip =   3.360000000e+02 >=   3.030000000e+02   9.8% (10970; 7036)
+1959612: mip =   3.360000000e+02 >=   3.040000000e+02   9.5% (11216; 7293)
+2010370: mip =   3.360000000e+02 >=   3.040000000e+02   9.5% (11809; 7503)
+2058747: mip =   3.360000000e+02 >=   3.040000000e+02   9.5% (12488; 7694)
+2102536: mip =   3.360000000e+02 >=   3.040000000e+02   9.5% (12868; 7958)
+2147554: mip =   3.360000000e+02 >=   3.040000000e+02   9.5% (13276; 8160)
Time used: 240.0 secs.  Memory used: 85.8 Mb.
+2192539: mip =   3.360000000e+02 >=   3.040000000e+02   9.5% (13744; 8381)
+2236181: mip =   3.360000000e+02 >=   3.040000000e+02   9.5% (14139; 8610)
+2280413: mip =   3.360000000e+02 >=   3.040000000e+02   9.5% (14557; 8794)
+2321801: mip =   3.360000000e+02 >=   3.040000000e+02   9.5% (14762; 9038)
+2363890: mip =   3.360000000e+02 >=   3.040000000e+02   9.5% (14919; 9243)
+2408300: mip =   3.360000000e+02 >=   3.040000000e+02   9.5% (15139; 9404)
+2447605: mip =   3.360000000e+02 >=   3.050000000e+02   9.2% (15441; 9683)
+2488978: mip =   3.360000000e+02 >=   3.050000000e+02   9.2% (15840; 9996)
+2535519: mip =   3.360000000e+02 >=   3.050000000e+02   9.2% (16258; 10208)
+2579322: mip =   3.360000000e+02 >=   3.050000000e+02   9.2% (16536; 10455)
+2623019: mip =   3.360000000e+02 >=   3.050000000e+02   9.2% (16944; 10691)
+2663210: mip =   3.360000000e+02 >=   3.050000000e+02   9.2% (17239; 10937)
Time used: 300.0 secs.  Memory used: 111.6 Mb.
+2702151: mip =   3.360000000e+02 >=   3.050000000e+02   9.2% (17509; 11190)
+2741319: mip =   3.360000000e+02 >=   3.050000000e+02   9.2% (17659; 11424)
+2782862: mip =   3.360000000e+02 >=   3.050000000e+02   9.2% (17805; 11670)
+2822901: mip =   3.360000000e+02 >=   3.050000000e+02   9.2% (17926; 11877)
+2863380: mip =   3.360000000e+02 >=   3.060000000e+02   8.9% (18093; 12114)
+2909421: mip =   3.360000000e+02 >=   3.060000000e+02   8.9% (18420; 12365)
+2946916: mip =   3.360000000e+02 >=   3.060000000e+02   8.9% (18632; 12708)
+2982779: mip =   3.360000000e+02 >=   3.060000000e+02   8.9% (18804; 13071)
+3021101: mip =   3.360000000e+02 >=   3.060000000e+02   8.9% (19205; 13355)
+3056291: mip =   3.360000000e+02 >=   3.060000000e+02   8.9% (19369; 13626)
+3096796: mip =   3.360000000e+02 >=   3.060000000e+02   8.9% (19579; 13840)
+3134484: mip =   3.360000000e+02 >=   3.060000000e+02   8.9% (19691; 14076)
Time used: 360.0 secs.  Memory used: 131.3 Mb.
+3172289: mip =   3.360000000e+02 >=   3.060000000e+02   8.9% (19789; 14326)
+3210401: mip =   3.360000000e+02 >=   3.070000000e+02   8.6% (19973; 14594)
+3250622: mip =   3.360000000e+02 >=   3.070000000e+02   8.6% (20274; 14831)
+3289365: mip =   3.360000000e+02 >=   3.070000000e+02   8.6% (20549; 15081)
+3321256: mip =   3.360000000e+02 >=   3.070000000e+02   8.6% (20625; 15404)
+3360708: mip =   3.360000000e+02 >=   3.070000000e+02   8.6% (20764; 15621)
+3401965: mip =   3.360000000e+02 >=   3.070000000e+02   8.6% (20894; 15817)
+3440982: mip =   3.360000000e+02 >=   3.070000000e+02   8.6% (20976; 16056)
+3471300: mip =   3.360000000e+02 >=   3.080000000e+02   8.3% (21066; 16436)
+3503976: mip =   3.360000000e+02 >=   3.080000000e+02   8.3% (21207; 16770)
+3539143: mip =   3.360000000e+02 >=   3.080000000e+02   8.3% (21310; 17088)
+3578571: mip =   3.360000000e+02 >=   3.080000000e+02   8.3% (21630; 17330)
Time used: 420.0 secs.  Memory used: 149.9 Mb.
+3611055: mip =   3.360000000e+02 >=   3.080000000e+02   8.3% (21843; 17624)
+3651280: mip =   3.360000000e+02 >=   3.080000000e+02   8.3% (22169; 17811)
+3688702: mip =   3.360000000e+02 >=   3.080000000e+02   8.3% (22360; 18029)
+3724913: mip =   3.360000000e+02 >=   3.080000000e+02   8.3% (22467; 18278)
+3760352: mip =   3.360000000e+02 >=   3.080000000e+02   8.3% (22514; 18562)
+3788237: mip =   3.360000000e+02 >=   3.090000000e+02   8.0% (22530; 18936)
+3823354: mip =   3.360000000e+02 >=   3.090000000e+02   8.0% (22756; 19210)
+3857782: mip =   3.360000000e+02 >=   3.090000000e+02   8.0% (22933; 19494)
+3891500: mip =   3.360000000e+02 >=   3.090000000e+02   8.0% (23291; 19776)
+3923380: mip =   3.360000000e+02 >=   3.090000000e+02   8.0% (23446; 20062)
+3954649: mip =   3.360000000e+02 >=   3.090000000e+02   8.0% (23436; 20360)
+3991441: mip =   3.360000000e+02 >=   3.090000000e+02   8.0% (23558; 20607)
Time used: 480.0 secs.  Memory used: 165.6 Mb.
+4028732: mip =   3.360000000e+02 >=   3.090000000e+02   8.0% (23677; 20793)
+4063385: mip =   3.360000000e+02 >=   3.090000000e+02   8.0% (23782; 21020)
+4086848: mip =   3.360000000e+02 >=   3.100000000e+02   7.7% (23957; 21463)
+4113844: mip =   3.360000000e+02 >=   3.100000000e+02   7.7% (24047; 21843)
+4150752: mip =   3.360000000e+02 >=   3.100000000e+02   7.7% (24402; 22128)
+4181358: mip =   3.360000000e+02 >=   3.100000000e+02   7.7% (24631; 22407)
+4209205: mip =   3.360000000e+02 >=   3.100000000e+02   7.7% (24685; 22727)
+4242834: mip =   3.360000000e+02 >=   3.100000000e+02   7.7% (24916; 22981)
+4283942: mip =   3.360000000e+02 >=   3.100000000e+02   7.7% (25333; 23153)
+4313893: mip =   3.360000000e+02 >=   3.100000000e+02   7.7% (25420; 23486)
+4349539: mip =   3.360000000e+02 >=   3.100000000e+02   7.7% (25564; 23718)
+4385277: mip =   3.360000000e+02 >=   3.100000000e+02   7.7% (25667; 23933)
Time used: 540.0 secs.  Memory used: 182.2 Mb.
+4414214: mip =   3.360000000e+02 >=   3.110000000e+02   7.4% (25690; 24322)
+4440960: mip =   3.360000000e+02 >=   3.110000000e+02   7.4% (25817; 24693)
+4472391: mip =   3.360000000e+02 >=   3.110000000e+02   7.4% (26022; 24981)
+4507077: mip =   3.360000000e+02 >=   3.110000000e+02   7.4% (26122; 25229)
+4540413: mip =   3.360000000e+02 >=   3.110000000e+02   7.4% (26194; 25522)
+4573185: mip =   3.360000000e+02 >=   3.110000000e+02   7.4% (26253; 25832)
+4602388: mip =   3.360000000e+02 >=   3.120000000e+02   7.1% (26347; 26190)
+4628974: mip =   3.360000000e+02 >=   3.120000000e+02   7.1% (26530; 26573)
+4660011: mip =   3.360000000e+02 >=   3.120000000e+02   7.1% (26640; 26838)
+4685913: mip =   3.360000000e+02 >=   3.120000000e+02   7.1% (26754; 27164)
+4713374: mip =   3.360000000e+02 >=   3.120000000e+02   7.1% (26866; 27484)
+4742912: mip =   3.360000000e+02 >=   3.120000000e+02   7.1% (26881; 27825)
Time used: 600.1 secs.  Memory used: 195.8 Mb.
+4770507: mip =   3.360000000e+02 >=   3.120000000e+02   7.1% (26859; 28182)
+4800090: mip =   3.360000000e+02 >=   3.120000000e+02   7.1% (26879; 28494)
+4826071: mip =   3.360000000e+02 >=   3.130000000e+02   6.8% (26884; 28841)
+4855958: mip =   3.360000000e+02 >=   3.130000000e+02   6.8% (26960; 29127)
+4888141: mip =   3.360000000e+02 >=   3.130000000e+02   6.8% (27071; 29383)
+4918327: mip =   3.360000000e+02 >=   3.130000000e+02   6.8% (27141; 29730)
+4952579: mip =   3.360000000e+02 >=   3.130000000e+02   6.8% (27256; 29966)
+4993103: mip =   3.360000000e+02 >=   3.130000000e+02   6.8% (27461; 30166)
+5034222: mip =   3.360000000e+02 >=   3.130000000e+02   6.8% (27661; 30312)
+5060768: mip =   3.360000000e+02 >=   3.140000000e+02   6.5% (27623; 30635)
+5086331: mip =   3.360000000e+02 >=   3.140000000e+02   6.5% (27733; 31066)
+5114904: mip =   3.360000000e+02 >=   3.140000000e+02   6.5% (27868; 31356)
Time used: 660.1 secs.  Memory used: 208.3 Mb.
+5145162: mip =   3.360000000e+02 >=   3.140000000e+02   6.5% (28058; 31622)
+5178578: mip =   3.360000000e+02 >=   3.140000000e+02   6.5% (28351; 31857)
+5209225: mip =   3.360000000e+02 >=   3.140000000e+02   6.5% (28597; 32117)
+5245366: mip =   3.360000000e+02 >=   3.140000000e+02   6.5% (28880; 32312)
+5274566: mip =   3.360000000e+02 >=   3.140000000e+02   6.5% (28957; 32686)
+5304809: mip =   3.360000000e+02 >=   3.140000000e+02   6.5% (29016; 33040)
+5339710: mip =   3.360000000e+02 >=   3.140000000e+02   6.5% (29108; 33311)
+5379402: mip =   3.360000000e+02 >=   3.140000000e+02   6.5% (29310; 33511)
+5401143: mip =   3.360000000e+02 >=   3.150000000e+02   6.2% (29310; 34013)
+5426379: mip =   3.360000000e+02 >=   3.150000000e+02   6.2% (29260; 34462)
+5454777: mip =   3.360000000e+02 >=   3.150000000e+02   6.2% (29502; 34764)
+5476938: mip =   3.360000000e+02 >=   3.150000000e+02   6.2% (29462; 35149)
Time used: 720.1 secs.  Memory used: 220.6 Mb.
+5513963: mip =   3.360000000e+02 >=   3.150000000e+02   6.2% (29594; 35349)
+5556306: mip =   3.360000000e+02 >=   3.150000000e+02   6.2% (29937; 35475)
+5597090: mip =   3.360000000e+02 >=   3.150000000e+02   6.2% (30253; 35612)
+5630897: mip =   3.360000000e+02 >=   3.150000000e+02   6.2% (30361; 35826)
+5661583: mip =   3.360000000e+02 >=   3.150000000e+02   6.2% (30381; 36078)
+5678722: mip =   3.360000000e+02 >=   3.160000000e+02   6.0% (30321; 36464)
+5693798: mip =   3.360000000e+02 >=   3.160000000e+02   6.0% (30274; 36853)
+5711849: mip =   3.360000000e+02 >=   3.160000000e+02   6.0% (30321; 37207)
+5734184: mip =   3.360000000e+02 >=   3.160000000e+02   6.0% (30333; 37538)
+5762540: mip =   3.360000000e+02 >=   3.160000000e+02   6.0% (30367; 37850)
+5796537: mip =   3.360000000e+02 >=   3.160000000e+02   6.0% (30492; 38064)
+5829886: mip =   3.360000000e+02 >=   3.160000000e+02   6.0% (30591; 38293)
Time used: 780.1 secs.  Memory used: 232.2 Mb.
+5869608: mip =   3.360000000e+02 >=   3.160000000e+02   6.0% (30743; 38445)
+5905906: mip =   3.360000000e+02 >=   3.160000000e+02   6.0% (30796; 38618)
+5944506: mip =   3.360000000e+02 >=   3.160000000e+02   6.0% (30973; 38785)
+5962497: mip =   3.360000000e+02 >=   3.160000000e+02   6.0% (30789; 39288)
+5978629: mip =   3.360000000e+02 >=   3.170000000e+02   5.7% (30728; 39802)
+5998581: mip =   3.360000000e+02 >=   3.170000000e+02   5.7% (30680; 40254)
+6019455: mip =   3.360000000e+02 >=   3.170000000e+02   5.7% (30608; 40623)
+6044382: mip =   3.360000000e+02 >=   3.170000000e+02   5.7% (30660; 40985)
+6075954: mip =   3.360000000e+02 >=   3.170000000e+02   5.7% (30825; 41218)
+6102656: mip =   3.360000000e+02 >=   3.170000000e+02   5.7% (30827; 41566)
+6128808: mip =   3.360000000e+02 >=   3.170000000e+02   5.7% (30752; 41840)
+6150718: mip =   3.360000000e+02 >=   3.170000000e+02   5.7% (30657; 42148)
Time used: 840.1 secs.  Memory used: 239.0 Mb.
+6166874: mip =   3.360000000e+02 >=   3.180000000e+02   5.4% (30430; 42880)
+6171728: mip =   3.360000000e+02 >=   3.180000000e+02   5.4% (30075; 43690)
+6189580: mip =   3.360000000e+02 >=   3.180000000e+02   5.4% (30191; 44210)
+6210875: mip =   3.360000000e+02 >=   3.180000000e+02   5.4% (30377; 44619)
+6218507: mip =   3.360000000e+02 >=   3.180000000e+02   5.4% (30119; 45040)
+6239015: mip =   3.360000000e+02 >=   3.180000000e+02   5.4% (30151; 45387)
+6263136: mip =   3.360000000e+02 >=   3.180000000e+02   5.4% (30265; 45706)
+6287228: mip =   3.360000000e+02 >=   3.180000000e+02   5.4% (30290; 46010)
+6312612: mip =   3.360000000e+02 >=   3.180000000e+02   5.4% (30361; 46317)
+6339485: mip =   3.360000000e+02 >=   3.180000000e+02   5.4% (30484; 46596)
+6369085: mip =   3.360000000e+02 >=   3.180000000e+02   5.4% (30581; 46873)
+6390264: mip =   3.360000000e+02 >=   3.180000000e+02   5.4% (30495; 47218)
Time used: 900.1 secs.  Memory used: 247.1 Mb.
+6417104: mip =   3.360000000e+02 >=   3.180000000e+02   5.4% (30535; 47509)
+6448031: mip =   3.360000000e+02 >=   3.180000000e+02   5.4% (30598; 47752)
+6474717: mip =   3.360000000e+02 >=   3.180000000e+02   5.4% (30640; 48019)
+6496203: mip =   3.360000000e+02 >=   3.180000000e+02   5.4% (30568; 48361)
+6527184: mip =   3.360000000e+02 >=   3.180000000e+02   5.4% (30659; 48699)
+6546079: mip =   3.360000000e+02 >=   3.190000000e+02   5.1% (30866; 49044)
+6556602: mip =   3.360000000e+02 >=   3.190000000e+02   5.1% (30760; 49433)
+6567922: mip =   3.360000000e+02 >=   3.190000000e+02   5.1% (30698; 49815)
+6581374: mip =   3.360000000e+02 >=   3.190000000e+02   5.1% (30730; 50182)
+6588582: mip =   3.360000000e+02 >=   3.190000000e+02   5.1% (30525; 51013)
+6602061: mip =   3.360000000e+02 >=   3.190000000e+02   5.1% (30397; 51442)
+6626524: mip =   3.360000000e+02 >=   3.190000000e+02   5.1% (30387; 51737)
Time used: 960.1 secs.  Memory used: 254.6 Mb.
+6649538: mip =   3.360000000e+02 >=   3.190000000e+02   5.1% (30468; 52059)
+6663283: mip =   3.360000000e+02 >=   3.190000000e+02   5.1% (30290; 52544)
+6682030: mip =   3.360000000e+02 >=   3.190000000e+02   5.1% (30167; 52900)
+6709027: mip =   3.360000000e+02 >=   3.190000000e+02   5.1% (30174; 53176)
+6729142: mip =   3.360000000e+02 >=   3.190000000e+02   5.1% (29990; 53625)
+6749508: mip =   3.360000000e+02 >=   3.190000000e+02   5.1% (29906; 54057)
+6758041: mip =   3.360000000e+02 >=   3.200000000e+02   4.8% (29604; 54634)
+6761659: mip =   3.360000000e+02 >=   3.200000000e+02   4.8% (29210; 55983)
+6766787: mip =   3.360000000e+02 >=   3.200000000e+02   4.8% (28876; 56729)
+6785161: mip =   3.360000000e+02 >=   3.200000000e+02   4.8% (28822; 57280)
+6810593: mip =   3.360000000e+02 >=   3.200000000e+02   4.8% (28746; 57590)
+6838017: mip =   3.360000000e+02 >=   3.200000000e+02   4.8% (28716; 57874)
Time used: 1020.1 secs.  Memory used: 256.3 Mb.
+6855846: mip =   3.360000000e+02 >=   3.200000000e+02   4.8% (28543; 58409)
+6872554: mip =   3.360000000e+02 >=   3.200000000e+02   4.8% (28326; 58948)
+6891863: mip =   3.360000000e+02 >=   3.210000000e+02   4.5% (28329; 59291)
+6919951: mip =   3.360000000e+02 >=   3.210000000e+02   4.5% (28838; 59585)
+6940179: mip =   3.360000000e+02 >=   3.210000000e+02   4.5% (29084; 59970)
+6947881: mip =   3.360000000e+02 >=   3.210000000e+02   4.5% (29037; 60430)
+6968584: mip =   3.360000000e+02 >=   3.210000000e+02   4.5% (28938; 60859)
+6986800: mip =   3.360000000e+02 >=   3.210000000e+02   4.5% (28781; 61409)
+7016207: mip =   3.360000000e+02 >=   3.210000000e+02   4.5% (28743; 61829)
+7029186: mip =   3.360000000e+02 >=   3.220000000e+02   4.2% (28564; 62580)
+7038976: mip =   3.360000000e+02 >=   3.220000000e+02   4.2% (28348; 63864)
+7050374: mip =   3.360000000e+02 >=   3.220000000e+02   4.2% (28114; 65196)
Time used: 1080.1 secs.  Memory used: 260.4 Mb.
+7062434: mip =   3.360000000e+02 >=   3.220000000e+02   4.2% (27924; 65674)
+7070765: mip =   3.360000000e+02 >=   3.220000000e+02   4.2% (27725; 66344)
+7082130: mip =   3.360000000e+02 >=   3.220000000e+02   4.2% (27628; 67305)
+7103602: mip =   3.360000000e+02 >=   3.220000000e+02   4.2% (27507; 67810)
+7130302: mip =   3.360000000e+02 >=   3.220000000e+02   4.2% (27470; 68266)
+7147016: mip =   3.360000000e+02 >=   3.220000000e+02   4.2% (27251; 68961)
+7164629: mip =   3.360000000e+02 >=   3.220000000e+02   4.2% (26970; 69478)
+7178957: mip =   3.360000000e+02 >=   3.230000000e+02   3.9% (26725; 70005)
+7202418: mip =   3.360000000e+02 >=   3.230000000e+02   3.9% (26755; 70435)
+7227820: mip =   3.360000000e+02 >=   3.230000000e+02   3.9% (26819; 70877)
+7251999: mip =   3.360000000e+02 >=   3.230000000e+02   3.9% (26927; 71283)
+7277144: mip =   3.360000000e+02 >=   3.230000000e+02   3.9% (27015; 71674)
Time used: 1140.1 secs.  Memory used: 260.5 Mb.
+7299142: mip =   3.360000000e+02 >=   3.230000000e+02   3.9% (27050; 72127)
+7315403: mip =   3.360000000e+02 >=   3.230000000e+02   3.9% (26944; 72865)
+7338593: mip =   3.360000000e+02 >=   3.230000000e+02   3.9% (27002; 73283)
+7362506: mip =   3.360000000e+02 >=   3.230000000e+02   3.9% (27090; 73668)
+7388390: mip =   3.360000000e+02 >=   3.230000000e+02   3.9% (27182; 74029)
+7411957: mip =   3.360000000e+02 >=   3.230000000e+02   3.9% (27222; 74419)
+7435943: mip =   3.360000000e+02 >=   3.230000000e+02   3.9% (27268; 74787)
+7460436: mip =   3.360000000e+02 >=   3.230000000e+02   3.9% (27340; 75160)
+7482918: mip =   3.360000000e+02 >=   3.230000000e+02   3.9% (27397; 75563)
+7507731: mip =   3.360000000e+02 >=   3.230000000e+02   3.9% (27454; 75947)
+7533921: mip =   3.360000000e+02 >=   3.230000000e+02   3.9% (27556; 76306)
+7559201: mip =   3.360000000e+02 >=   3.230000000e+02   3.9% (27544; 76666)
Time used: 1200.1 secs.  Memory used: 271.3 Mb.
+7584647: mip =   3.360000000e+02 >=   3.230000000e+02   3.9% (27613; 77024)
+7605547: mip =   3.360000000e+02 >=   3.230000000e+02   3.9% (27649; 77584)
+7628852: mip =   3.360000000e+02 >=   3.230000000e+02   3.9% (27667; 77999)
+7653602: mip =   3.360000000e+02 >=   3.230000000e+02   3.9% (27780; 78365)
+7679852: mip =   3.360000000e+02 >=   3.230000000e+02   3.9% (27860; 78672)
+7704840: mip =   3.360000000e+02 >=   3.230000000e+02   3.9% (27952; 79009)
+7730136: mip =   3.360000000e+02 >=   3.230000000e+02   3.9% (28025; 79347)
+7756478: mip =   3.360000000e+02 >=   3.230000000e+02   3.9% (28074; 79756)
+7775074: mip =   3.360000000e+02 >=   3.230000000e+02   3.9% (27965; 80470)
+7797252: mip =   3.360000000e+02 >=   3.230000000e+02   3.9% (28013; 81027)
+7819238: mip =   3.360000000e+02 >=   3.230000000e+02   3.9% (28051; 81473)
+7840268: mip =   3.360000000e+02 >=   3.230000000e+02   3.9% (28031; 81863)
Time used: 1260.1 secs.  Memory used: 281.5 Mb.
+7866457: mip =   3.360000000e+02 >=   3.230000000e+02   3.9% (28082; 82223)
+7878206: mip =   3.360000000e+02 >=   3.240000000e+02   3.6% (28004; 82651)
+7900335: mip =   3.360000000e+02 >=   3.240000000e+02   3.6% (28020; 83022)
+7918878: mip =   3.360000000e+02 >=   3.240000000e+02   3.6% (27962; 83549)
+7934477: mip =   3.360000000e+02 >=   3.240000000e+02   3.6% (27835; 84101)
+7949318: mip =   3.360000000e+02 >=   3.240000000e+02   3.6% (27706; 84661)
+7964597: mip =   3.360000000e+02 >=   3.240000000e+02   3.6% (27635; 85375)
+7981683: mip =   3.360000000e+02 >=   3.240000000e+02   3.6% (27546; 86206)
+7992996: mip =   3.360000000e+02 >=   3.240000000e+02   3.6% (27295; 87170)
+8010550: mip =   3.360000000e+02 >=   3.240000000e+02   3.6% (27136; 87775)
+8035723: mip =   3.360000000e+02 >=   3.240000000e+02   3.6% (27107; 88365)
+8048971: mip =   3.360000000e+02 >=   3.250000000e+02   3.3% (27028; 88811)
Time used: 1320.1 secs.  Memory used: 284.5 Mb.
+8065352: mip =   3.360000000e+02 >=   3.250000000e+02   3.3% (27076; 89195)
+8081138: mip =   3.360000000e+02 >=   3.250000000e+02   3.3% (27086; 89773)
+8101000: mip =   3.360000000e+02 >=   3.250000000e+02   3.3% (27136; 90274)
+8119157: mip =   3.360000000e+02 >=   3.250000000e+02   3.3% (27175; 90805)
+8137902: mip =   3.360000000e+02 >=   3.250000000e+02   3.3% (27191; 91263)
+8150092: mip =   3.360000000e+02 >=   3.250000000e+02   3.3% (27010; 92425)
+8164196: mip =   3.360000000e+02 >=   3.250000000e+02   3.3% (26875; 93402)
+8190228: mip =   3.360000000e+02 >=   3.250000000e+02   3.3% (26737; 93750)
+8204732: mip =   3.360000000e+02 >=   3.250000000e+02   3.3% (26488; 94273)
+8216955: mip =   3.360000000e+02 >=   3.260000000e+02   3.0% (26248; 95049)
+8231480: mip =   3.360000000e+02 >=   3.260000000e+02   3.0% (26129; 95986)
+8241205: mip =   3.360000000e+02 >=   3.260000000e+02   3.0% (25911; 96909)
Time used: 1380.1 secs.  Memory used: 286.9 Mb.
+8249639: mip =   3.360000000e+02 >=   3.260000000e+02   3.0% (25599; 97991)
+8262783: mip =   3.360000000e+02 >=   3.260000000e+02   3.0% (25416; 98521)
+8278117: mip =   3.360000000e+02 >=   3.260000000e+02   3.0% (25266; 99137)
+8288299: mip =   3.360000000e+02 >=   3.260000000e+02   3.0% (24968; 100124)
+8301121: mip =   3.360000000e+02 >=   3.270000000e+02   2.7% (24701; 100864)
+8303728: mip =   3.360000000e+02 >=   3.270000000e+02   2.7% (24301; 102212)
+8307475: mip =   3.360000000e+02 >=   3.270000000e+02   2.7% (23903; 104190)
+8316921: mip =   3.360000000e+02 >=   3.270000000e+02   2.7% (23614; 106063)
+8331280: mip =   3.360000000e+02 >=   3.270000000e+02   2.7% (23288; 107830)
+8342425: mip =   3.360000000e+02 >=   3.270000000e+02   2.7% (22998; 109154)
+8346010: mip =   3.360000000e+02 >=   3.270000000e+02   2.7% (22515; 110497)
+8360339: mip =   3.360000000e+02 >=   3.270000000e+02   2.7% (22150; 111511)
Time used: 1440.1 secs.  Memory used: 286.9 Mb.
+8370199: mip =   3.360000000e+02 >=   3.280000000e+02   2.4% (21913; 112612)
+8387928: mip =   3.360000000e+02 >=   3.280000000e+02   2.4% (21935; 113250)
+8407543: mip =   3.360000000e+02 >=   3.280000000e+02   2.4% (22053; 113801)
+8426503: mip =   3.360000000e+02 >=   3.280000000e+02   2.4% (22104; 114317)
+8444748: mip =   3.360000000e+02 >=   3.280000000e+02   2.4% (22016; 115054)
+8455602: mip =   3.360000000e+02 >=   3.280000000e+02   2.4% (21759; 116352)
+8472853: mip =   3.360000000e+02 >=   3.280000000e+02   2.4% (21437; 117855)
+8496416: mip =   3.360000000e+02 >=   3.290000000e+02   2.1% (21200; 118921)
+8503528: mip =   3.360000000e+02 >=   3.290000000e+02   2.1% (20934; 119965)
+8518743: mip =   3.360000000e+02 >=   3.290000000e+02   2.1% (20766; 120873)
+8535944: mip =   3.360000000e+02 >=   3.290000000e+02   2.1% (20594; 121770)
+8553940: mip =   3.360000000e+02 >=   3.290000000e+02   2.1% (20442; 122684)
Time used: 1500.1 secs.  Memory used: 286.9 Mb.
+8571012: mip =   3.360000000e+02 >=   3.290000000e+02   2.1% (20284; 123609)
+8589704: mip =   3.360000000e+02 >=   3.290000000e+02   2.1% (20188; 124498)
+8608662: mip =   3.360000000e+02 >=   3.290000000e+02   2.1% (20133; 125339)
+8627920: mip =   3.360000000e+02 >=   3.290000000e+02   2.1% (20047; 126191)
+8646488: mip =   3.360000000e+02 >=   3.290000000e+02   2.1% (20029; 127011)
+8666554: mip =   3.360000000e+02 >=   3.290000000e+02   2.1% (20059; 127803)
+8686739: mip =   3.360000000e+02 >=   3.290000000e+02   2.1% (20120; 128576)
+8708638: mip =   3.360000000e+02 >=   3.290000000e+02   2.1% (20209; 129316)
+8729256: mip =   3.360000000e+02 >=   3.290000000e+02   2.1% (20299; 130062)
+8750837: mip =   3.360000000e+02 >=   3.290000000e+02   2.1% (20471; 130731)
+8772744: mip =   3.360000000e+02 >=   3.290000000e+02   2.1% (20675; 131418)
+8790134: mip =   3.360000000e+02 >=   3.290000000e+02   2.1% (20709; 132288)
Time used: 1560.1 secs.  Memory used: 286.9 Mb.
+8796713: mip =   3.360000000e+02 >=   3.290000000e+02   2.1% (20341; 134121)
+8800689: mip =   3.360000000e+02 >=   3.290000000e+02   2.1% (19818; 136649)
+8818196: mip =   3.360000000e+02 >=   3.300000000e+02   1.8% (19543; 137872)
+8830528: mip =   3.360000000e+02 >=   3.300000000e+02   1.8% (19183; 139339)
+8841551: mip =   3.360000000e+02 >=   3.310000000e+02   1.5% (18696; 141976)
+8844443: mip =   3.360000000e+02 >=   3.310000000e+02   1.5% (18218; 144076)
+8852678: mip =   3.360000000e+02 >=   3.310000000e+02   1.5% (17943; 145323)
+8868197: mip =   3.360000000e+02 >=   3.310000000e+02   1.5% (17713; 146492)
+8885522: mip =   3.360000000e+02 >=   3.310000000e+02   1.5% (17498; 147655)
+8902655: mip =   3.360000000e+02 >=   3.310000000e+02   1.5% (17281; 148884)
+8918911: mip =   3.360000000e+02 >=   3.310000000e+02   1.5% (17046; 150175)
+8935104: mip =   3.360000000e+02 >=   3.310000000e+02   1.5% (16815; 151409)
Time used: 1620.2 secs.  Memory used: 286.9 Mb.
+8951667: mip =   3.360000000e+02 >=   3.310000000e+02   1.5% (16609; 152621)
+8970385: mip =   3.360000000e+02 >=   3.310000000e+02   1.5% (16487; 153699)
+8990088: mip =   3.360000000e+02 >=   3.310000000e+02   1.5% (16406; 154671)
+9009746: mip =   3.360000000e+02 >=   3.310000000e+02   1.5% (16324; 155597)
+9030331: mip =   3.360000000e+02 >=   3.310000000e+02   1.5% (16300; 156475)
+9052476: mip =   3.360000000e+02 >=   3.310000000e+02   1.5% (16212; 157462)
+9069391: mip =   3.360000000e+02 >=   3.310000000e+02   1.5% (16045; 158445)
+9088205: mip =   3.360000000e+02 >=   3.320000000e+02   1.2% (15685; 160009)
+9100093: mip =   3.360000000e+02 >=   3.320000000e+02   1.2% (15255; 161668)
+9122805: mip =   3.360000000e+02 >=   3.320000000e+02   1.2% (15120; 162668)
+9137812: mip =   3.360000000e+02 >=   3.320000000e+02   1.2% (14662; 164236)
+9144771: mip =   3.360000000e+02 >=   3.320000000e+02   1.2% (13992; 166832)
Time used: 1680.2 secs.  Memory used: 286.9 Mb.
+9158783: mip =   3.360000000e+02 >=   3.330000000e+02   0.9% (13427; 169057)
+9173897: mip =   3.360000000e+02 >=   3.330000000e+02   0.9% (12895; 171415)
+9197725: mip =   3.360000000e+02 >=   3.330000000e+02   0.9% (12794; 172963)
+9223377: mip =   3.360000000e+02 >=   3.330000000e+02   0.9% (12734; 174147)
+9251295: mip =   3.360000000e+02 >=   3.330000000e+02   0.9% (12747; 175152)
+9278210: mip =   3.360000000e+02 >=   3.330000000e+02   0.9% (12751; 176153)
+9305898: mip =   3.360000000e+02 >=   3.330000000e+02   0.9% (12779; 177092)
+9332896: mip =   3.360000000e+02 >=   3.330000000e+02   0.9% (12673; 178458)
+9357094: mip =   3.360000000e+02 >=   3.330000000e+02   0.9% (12503; 180518)
+9382239: mip =   3.360000000e+02 >=   3.340000000e+02   0.6% (12395; 181838)
+9400781: mip =   3.360000000e+02 >=   3.340000000e+02   0.6% (12165; 183414)
+9415000: mip =   3.360000000e+02 >=   3.340000000e+02   0.6% (11562; 186697)
Time used: 1740.2 secs.  Memory used: 286.9 Mb.
+9423831: mip =   3.360000000e+02 >=   3.350000000e+02   0.3% (10557; 191375)
+9431183: mip =   3.360000000e+02 >=   3.350000000e+02   0.3% (9530; 195410)
+9442410: mip =   3.360000000e+02 >=   3.350000000e+02   0.3% (8746; 198979)
+9455551: mip =   3.360000000e+02 >=   3.350000000e+02   0.3% (8112; 202229)
+9472429: mip =   3.360000000e+02 >=   3.350000000e+02   0.3% (7548; 205359)
+9497633: mip =   3.360000000e+02 >=   3.350000000e+02   0.3% (6880; 208516)
+9528562: mip =   3.360000000e+02 >=   3.350000000e+02   0.3% (6149; 211839)
+9562333: mip =   3.360000000e+02 >=   3.350000000e+02   0.3% (5221; 216034)
+9601268: mip =   3.360000000e+02 >=   3.350000000e+02   0.3% (4069; 221612)
+9644633: mip =   3.360000000e+02 >=   3.350000000e+02   0.3% (2706; 229449)
+9694520: mip =   3.360000000e+02 >=   3.350000000e+02   0.3% (964; 242964)
+9749283: mip =   3.360000000e+02 >=   3.350000000e+02   0.3% (119; 253150)
+9754996: mip =   3.360000000e+02 >=     tree is empty   0.0% (0; 255319)
INTEGER OPTIMAL SOLUTION FOUND
Time used:   1799.4 secs
Memory used: 287.4 Mb (301348339 bytes)
Writing MIP solution to 'solutions/new_no_tr/triang6_3_tiers_input.lp'...
